5 5
1 1 0 37 2 49 3 35 4 67
4 35 3 93 1 9 0 37 2 60
0 56 3 89 4 12 2 71 1 71
4 4 0 61 2 45 1 95 3 50
3 50 0 74 4 48 2 23 1 90
-1
0 2 3 5
0 3 4 5
0 1 3 5
0 1 2 4 5
0 3 4 5
-2
43 134 199
152 258 299
80 230 327
5 72 277 334
249 212 382

427 9
10 16 21 1 8
0 18 7 24 14
17 13 23 2 9
20 11 6 19 3
15 5 12 22 4
